results/res_prop_muc/res_Cimatti_mathsat_cores/QF_LRA/clocksynchro_4clocks.worst_case_skew.induct.smt.smt2.res
unsat
( c0
  c1
  c10
  c103
  c105
  c107
  c109
  c11
  c111
  c114
  c115
  c116
  c117
  c118
  c119
  c12
  c120
  c121
  c122
  c123
  c124
  c125
  c126
  c127
  c13
  c14
  c15
  c16
  c17
  c18
  c19
  c2
  c20
  c21
  c22
  c23
  c24
  c25
  c26
  c27
  c28
  c29
  c3
  c30
  c31
  c32
  c33
  c34
  c35
  c4
  c41
  c42
  c43
  c44
  c45
  c46
  c47
  c48
  c49
  c5
  c50
  c51
  c52
  c53
  c54
  c55
  c56
  c57
  c58
  c59
  c6
  c60
  c61
  c62
  c63
  c64
  c65
  c66
  c67
  c68
  c69
  c7
  c8
  c83
  c85
  c87
  c89
  c9
  c91
  c93
  c94
  c97
  c99 )
